(set-info :smt-lib-version 2.6)
(set-logic QF_S)
(set-info :source |
Generated by: Murphy Berzish, Mitja Kulczynski, Federico Mora, Florin Manea, Joel Day, Dirk Nowotka, Vijay Ganesh, Zhengyang Lu
Generated on: 2020-10-01
Description: Translated from a collection of real-world regex queries, AutomataArk, collected by Loris D’Antoni and Fang Wang: https://github.com/lorisdanto/automatark
Application: Evaluate solvers on real-world regex queries
Target solver: Z3str3RE, CVC4, OSTRICH, Z3seq, Z3str3, Z3-Trau
Publications: Berzish, M., Kulczynski, M., Mora, F., Manea, F., Day, J. D., Nowotka, D., & Ganesh, V. (2021, July). An SMT solver for regular expressions and linear arithmetic over string length. In CAV 2021.
|)
(set-info :license "https://creativecommons.org/licenses/by/4.0/")
(set-info :category "industrial")
(set-info :status unknown)

(declare-const X String)
(assert (not (str.in_re X (re.++ (re.union (re.range "0" "9") (re.range "A" "Z") (re.range "a" "z") (str.to_re "_")) (re.+ re.allchar) (re.* (re.++ (str.to_re "\u{a}\u{9}") (re.+ re.allchar))) (str.to_re "\u{a}")))))
(assert (str.in_re X (re.++ ((_ re.loop 8 8) (re.union (re.range "a" "f") (re.range "0" "9"))) (str.to_re "-") ((_ re.loop 4 4) (re.union (re.range "a" "f") (re.range "0" "9"))) (str.to_re "-3") ((_ re.loop 3 3) (re.union (re.range "a" "f") (re.range "0" "9"))) (str.to_re "-") (re.union (str.to_re "8") (str.to_re "9") (str.to_re "a") (str.to_re "b")) ((_ re.loop 3 3) (re.union (re.range "a" "f") (re.range "0" "9"))) (str.to_re "-") ((_ re.loop 12 12) (re.union (re.range "a" "f") (re.range "0" "9"))) (str.to_re "\u{a}"))))
(assert (not (str.in_re X (re.++ (re.range "1" "4") ((_ re.loop 3 3) (re.range "0" "9")) (str.to_re "/") (re.union (re.++ (re.opt (str.to_re "0")) (re.range "1" "6") (str.to_re "/") (re.union (re.++ (str.to_re "3") (re.range "0" "1")) (re.++ (re.range "1" "2") (re.range "0" "9")) (re.++ (re.opt (str.to_re "0")) (re.range "1" "9")))) (re.++ (re.union (re.++ (str.to_re "1") (re.range "0" "2")) (re.++ (re.opt (str.to_re "0")) (re.range "7" "9"))) (str.to_re "/") (re.union (str.to_re "30") (re.++ (re.range "1" "2") (re.range "0" "9")) (re.++ (re.opt (str.to_re "0")) (re.range "1" "9"))))) (str.to_re "\u{a}")))))
(assert (not (str.in_re X (re.++ ((_ re.loop 1 1) (re.union (re.++ (str.to_re "{1}") ((_ re.loop 1 1) (re.range "2" "9")) ((_ re.loop 2 2) (re.range "0" "9")) ((_ re.loop 1 1) (str.to_re ")")) (re.opt (str.to_re " ")) ((_ re.loop 1 1) (re.range "2" "9")) ((_ re.loop 2 2) (re.range "0" "9")) (re.opt (re.union (str.to_re "-") (str.to_re " "))) ((_ re.loop 4 4) (re.range "0" "9"))) (re.++ ((_ re.loop 1 1) (re.range "2" "9")) ((_ re.loop 2 2) (re.range "0" "9")) ((_ re.loop 1 1) (str.to_re " ")) ((_ re.loop 1 1) (re.range "2" "9")) ((_ re.loop 2 2) (re.range "0" "9")) ((_ re.loop 1 1) (str.to_re " ")) ((_ re.loop 4 4) (re.range "0" "9"))) (re.++ ((_ re.loop 1 1) (re.range "2" "9")) ((_ re.loop 2 2) (re.range "0" "9")) ((_ re.loop 1 1) (re.range "2" "9")) ((_ re.loop 6 6) (re.range "0" "9"))) (re.++ ((_ re.loop 1 1) (re.range "2" "9")) ((_ re.loop 2 2) (re.range "0" "9")) ((_ re.loop 1 1) (str.to_re "-")) ((_ re.loop 1 1) (re.range "2" "9")) ((_ re.loop 2 2) (re.range "0" "9")) ((_ re.loop 1 1) (str.to_re "-")) ((_ re.loop 4 4) (re.range "0" "9"))))) (str.to_re "\u{a}")))))
(assert (not (str.in_re X (str.to_re "IPUSER-Host:User-Agent:/searchfast/\u{a}"))))
(check-sat)

(exit)
